c Result of efficient AIG-to-CNF conversion using package CNF
p cnf 182 492
-2 3 80 98 110 0
2 -110 0
2 -98 0
2 -3 0
2 -80 0
3 -4 -5 -47 0
3 -4 -5 -6 0
-3 4 0
-3 5 0
-3 6 47 0
4 -122 -123 0
-4 122 0
-4 123 0
5 -124 -125 0
-5 124 0
-5 125 0
6 149 -7 -36 -39 0
-6 -149 0
-6 39 0
-6 36 0
-6 7 0
-7 -145 22 0
-7 -8 22 0
-7 15 22 0
7 -22 0
7 145 8 -15 0
8 -146 147 12 0
8 -146 -147 9 0
-8 146 0
-8 -147 -9 0
-8 147 -12 0
9 -148 -10 0
9 148 -11 0
-9 148 11 0
-9 -148 10 0
10 149 -164 0
10 -149 -165 0
-10 -149 165 0
-10 149 164 0
11 149 -162 0
11 -149 -163 0
-11 -149 163 0
-11 149 162 0
12 -148 -13 0
12 148 -14 0
-12 148 14 0
-12 -148 13 0
13 149 -160 0
13 -149 -161 0
-13 -149 161 0
-13 149 160 0
14 149 -158 0
14 -149 -159 0
-14 -149 159 0
-14 149 158 0
-15 146 -147 16 0
-15 146 147 19 0
15 -146 0
15 -147 -16 0
15 147 -19 0
16 -148 -17 0
16 148 -18 0
-16 148 18 0
-16 -148 17 0
17 149 -156 0
17 -149 -157 0
-17 -149 157 0
-17 149 156 0
18 149 -154 0
18 -149 -155 0
-18 -149 155 0
-18 149 154 0
19 -148 -20 0
19 148 -21 0
-19 148 21 0
-19 -148 20 0
20 149 -152 0
20 -149 -153 0
-20 -149 153 0
-20 149 152 0
21 149 -150 0
21 -149 -151 0
-21 -149 151 0
-21 149 150 0
-22 145 0
-22 -146 30 0
-22 146 23 0
22 -145 146 -23 0
22 -145 -146 -30 0
23 -147 -24 0
23 147 -27 0
-23 147 27 0
-23 -147 24 0
24 -148 -25 0
24 148 -26 0
-24 148 26 0
-24 -148 25 0
25 149 -172 0
25 -149 -173 0
-25 -149 173 0
-25 149 172 0
26 149 -170 0
26 -149 -171 0
-26 -149 171 0
-26 149 170 0
27 -148 -28 0
27 148 -29 0
-27 148 29 0
-27 -148 28 0
28 149 -168 0
28 -149 -169 0
-28 -149 169 0
-28 149 168 0
29 149 -166 0
29 -149 -167 0
-29 -149 167 0
-29 149 166 0
-30 147 33 0
-30 -147 31 32 0
30 -147 -31 0
30 147 -33 0
30 -147 -32 0
31 -148 -149 -181 0
31 -148 149 -180 0
-31 148 0
-31 -149 181 0
-31 149 180 0
32 148 -149 -179 0
32 148 149 -178 0
-32 -148 0
-32 -149 179 0
-32 149 178 0
-33 -148 34 0
-33 148 35 0
33 -148 -34 0
33 148 -35 0
-34 -149 177 0
-34 149 176 0
34 149 -176 0
34 -149 -177 0
35 149 -174 0
35 -149 -175 0
-35 -149 175 0
-35 149 174 0
36 -134 -135 -37 -38 0
-36 38 0
-36 134 0
-36 37 0
-36 135 0
37 -126 -127 0
-37 126 0
-37 127 0
38 -118 -119 -120 -121 0
-38 121 0
-38 118 0
-38 120 0
-38 119 0
39 -40 -45 0
-39 40 0
-39 45 0
40 -41 -42 0
-40 41 0
-40 42 0
41 -128 -129 0
-41 128 0
-41 129 0
42 -136 -137 -43 -44 0
-42 44 0
-42 136 0
-42 43 0
-42 137 0
43 -138 -139 0
-43 138 0
-43 139 0
44 -140 -141 -142 0
-44 140 0
-44 141 0
-44 142 0
45 -130 -143 -144 -46 0
-45 46 0
-45 130 0
-45 144 0
-45 143 0
46 -131 -132 -133 0
-46 131 0
-46 132 0
-46 133 0
47 148 -42 -48 -79 0
-47 42 0
-47 48 0
-47 -148 0
-47 79 0
-48 -145 63 71 0
-48 49 63 71 0
48 -71 0
48 -63 0
48 145 -49 0
49 -146 -50 0
49 146 -57 0
-49 146 57 0
-49 -146 50 0
50 -147 -51 0
50 147 -54 0
-50 147 54 0
-50 -147 51 0
51 -148 -52 0
51 148 -53 0
-51 148 53 0
-51 -148 52 0
52 149 -163 0
52 -149 -164 0
-52 -149 164 0
-52 149 163 0
53 149 -161 0
53 -149 -162 0
-53 -149 162 0
-53 149 161 0
54 -148 -55 0
54 148 -56 0
-54 148 56 0
-54 -148 55 0
55 149 -159 0
55 -149 -160 0
-55 -149 160 0
-55 149 159 0
56 149 -157 0
56 -149 -158 0
-56 -149 158 0
-56 149 157 0
57 -147 -58 0
57 147 -61 0
-57 147 61 0
-57 -147 58 0
58 -148 -59 0
58 148 -60 0
-58 148 60 0
-58 -148 59 0
59 149 -155 0
59 -149 -156 0
-59 -149 156 0
-59 149 155 0
60 149 -153 0
60 -149 -154 0
-60 -149 154 0
-60 149 153 0
61 -148 -62 0
61 148 -149 -150 0
-61 -148 62 0
-61 148 150 0
-61 148 149 0
62 149 -151 0
62 -149 -152 0
-62 -149 152 0
-62 149 151 0
63 147 -64 -68 0
63 -147 -64 -65 0
-63 64 0
-63 -147 65 0
-63 147 68 0
64 -145 146 0
-64 145 0
-64 -146 0
65 -148 -66 0
65 148 -67 0
-65 148 67 0
-65 -148 66 0
66 149 -171 0
66 -149 -172 0
-66 -149 172 0
-66 149 171 0
67 149 -169 0
67 -149 -170 0
-67 -149 170 0
-67 149 169 0
68 -148 -69 0
68 148 -70 0
-68 148 70 0
-68 -148 69 0
69 149 -167 0
69 -149 -168 0
-69 -149 168 0
-69 149 167 0
70 149 -165 0
70 -149 -166 0
-70 -149 166 0
-70 149 165 0
71 147 -72 -76 0
71 -147 -72 -73 0
-71 72 0
-71 -147 73 0
-71 147 76 0
72 -145 -146 0
-72 145 0
-72 146 0
73 -148 -74 0
73 148 -75 0
-73 148 75 0
-73 -148 74 0
74 149 -179 0
74 -149 -180 0
-74 -149 180 0
-74 149 179 0
75 149 -177 0
75 -149 -178 0
-75 -149 178 0
-75 149 177 0
76 -148 -77 0
76 148 -78 0
-76 148 78 0
-76 -148 77 0
77 149 -175 0
77 -149 -176 0
-77 -149 176 0
-77 149 175 0
78 149 -173 0
78 -149 -174 0
-78 -149 174 0
-78 149 173 0
79 -36 -41 -45 0
-79 36 0
-79 41 0
-79 45 0
80 -81 -89 0
80 144 -86 -89 0
-80 89 0
-80 -144 81 0
-80 81 86 0
81 145 -82 0
81 144 145 -84 0
-81 -145 0
-81 -144 82 0
-81 82 84 0
82 -146 -83 0
82 146 -147 -19 0
-82 -146 83 0
-82 146 19 0
-82 146 147 0
83 -147 -12 0
83 147 -16 0
-83 147 16 0
-83 -147 12 0
84 -146 -85 0
84 146 -147 -61 0
-84 -146 85 0
-84 146 61 0
-84 146 147 0
85 -147 -54 0
85 147 -58 0
-85 147 58 0
-85 -147 54 0
-86 145 0
-86 -146 88 0
-86 146 87 0
86 -145 146 -87 0
86 -145 -146 -88 0
87 147 -51 0
87 -147 -68 0
-87 -147 68 0
-87 147 51 0
-88 -147 76 0
-88 147 65 0
88 147 -65 0
88 -147 -76 0
89 -37 -41 -90 -96 0
-89 96 0
-89 37 0
-89 90 0
-89 41 0
90 -144 -91 -92 -93 0
-90 93 0
-90 144 0
-90 92 0
-90 91 0
91 -130 -131 0
-91 130 0
-91 131 0
92 -132 -133 0
-92 132 0
-92 133 0
93 -38 -94 0
-93 38 0
-93 94 0
94 -124 -125 -4 -95 0
-94 95 0
-94 124 0
-94 4 0
-94 125 0
95 -134 -135 0
-95 134 0
-95 135 0
96 -136 -137 -97 0
-96 136 0
-96 137 0
-96 97 0
97 -138 -139 -143 -44 0
-97 44 0
-97 138 0
-97 143 0
-97 139 0
98 -145 -99 -107 0
98 -99 -102 -107 0
-98 107 0
-98 99 0
-98 145 102 0
99 -91 -94 -100 101 0
-99 100 0
-99 -101 0
-99 91 0
-99 94 0
100 -132 -133 -37 -38 0
-100 38 0
-100 132 0
-100 37 0
-100 133 0
101 -148 -64 29 0
101 148 10 -64 0
-101 64 0
-101 148 -10 0
-101 -148 -29 0
102 146 -105 0
102 -146 103 -104 0
-102 -146 -103 0
-102 146 105 0
-102 -146 104 0
103 -147 148 13 0
103 -147 -148 11 0
-103 147 0
-103 -148 -11 0
-103 148 -13 0
-104 147 -148 14 0
-104 147 148 17 0
104 -147 0
104 -148 -14 0
104 148 -17 0
105 -147 -106 0
105 147 -148 -21 0
-105 -147 106 0
-105 147 21 0
-105 147 148 0
106 -148 -18 0
106 148 -20 0
-106 148 20 0
-106 -148 18 0
107 147 -40 -108 109 0
-107 -147 0
-107 -109 0
-107 108 0
-107 40 0
108 -143 -144 0
-108 143 0
-108 144 0
109 -148 -72 35 0
109 148 25 -72 0
-109 72 0
-109 148 -25 0
-109 -148 -35 0
110 146 -39 -93 -111 0
-110 -146 0
-110 111 0
-110 93 0
-110 39 0
111 145 -37 -115 0
111 -145 -37 -112 0
-111 37 0
-111 145 115 0
-111 -145 112 0
-112 147 114 0
-112 -147 113 0
112 -147 -113 0
112 147 -114 0
113 -148 -67 0
113 148 -69 0
-113 148 69 0
-113 -148 67 0
114 148 -52 0
114 -148 -70 0
-114 -148 70 0
-114 148 52 0
-115 -147 117 0
-115 147 116 0
-115 147 148 0
115 -147 -117 0
115 147 -148 -116 0
116 -149 -150 0
-116 149 0
-116 150 0
117 -148 -60 0
117 148 -62 0
-117 148 62 0
-117 -148 60 0
-182 0
2 0

